NAME : prob30d.7310.tour
COMMENT : Cost = 0_7310
COMMENT : Found by LKH [Keld Helsgaun] Sun Sep 17 01:06:38 2017
TYPE : TOUR
DIMENSION : 61
TOUR_SECTION
1
60
57
27
53
48
61
35
42
49
44
50
34
30
58
39
47
37
32
45
15
56
17
12
20
51
18
28
43
38
33
36
31
55
59
2
25
19
54
41
6
14
8
40
29
21
24
26
23
52
10
5
46
7
16
4
22
13
3
11
9
-1
EOF
